12
48
955
958
996
1101
930
825
1060
974
1042
800
795
880
94	185
283	369
395	324
352	404
354	279
819	894
329	370
584	617
174	259
889	853
116	169
515	494
535	585
587	594
727	671
800	885
333	349
21	3
805	814
135	234
94	82
148	211
516	560
647	582
136	177
380	422
761	841
282	230
643	619
675	662
156	102
375	276
631	565
854	834
327	292
419	392
789	784
848	763
635	664
16	85
525	478
871	907
372	451
320	316
884	940
85	120
493	408
904	830
